sat
(:max-memory                   18.09
 :memory                       17.97
 :nlsat-irrational-assignments 1
 :nlsat-propagations           6
 :nlsat-stages                 5
 :num-allocs                   5367
 :rlimit-count                 1066
 :time                         0.00)
